; benchmark generated from python API
(set-info :status unknown)
(declare-fun x_month () Int)
(declare-fun x_day () Int)
(declare-fun x_year () Int)
(declare-fun y_month () Int)
(declare-fun y_day () Int)
(declare-fun y_year () Int)
(assert
 (>= x_month 1))
(assert
 (<= x_month 12))
(assert
 (>= x_day 1))
(assert
 (<= x_day 31))
(assert
 (let (($x397 (<= x_day 28)))
 (let (($x744 (<= x_day 29)))
 (let (($x197 (= (mod x_year 400) 0)))
 (let (($x695 (= (mod x_year 4) 0)))
 (let (($x748 (ite (or (and $x695 (and (distinct (mod x_year 100) 0) true)) $x197) $x744 $x397)))
 (let (($x747 (= x_month 2)))
 (ite $x747 $x748 true))))))))
(assert
 (let (($x244 (<= x_day 30)))
 (let (($x33 (or (= x_month 4) (= x_month 6) (= x_month 9) (= x_month 11))))
 (ite $x33 $x244 true))))
(assert
 (>= y_month 1))
(assert
 (<= y_month 12))
(assert
 (>= y_day 1))
(assert
 (<= y_day 31))
(assert
 (let (($x49 (<= y_day 28)))
 (let (($x683 (<= y_day 29)))
 (let (($x682 (= (mod y_year 400) 0)))
 (let (($x32 (= (mod y_year 4) 0)))
 (let (($x705 (ite (or (and $x32 (and (distinct (mod y_year 100) 0) true)) $x682) $x683 $x49)))
 (let (($x506 (= y_month 2)))
 (ite $x506 $x705 true))))))))
(assert
 (let (($x435 (<= y_day 30)))
 (let (($x659 (= y_month 4)))
 (let (($x701 (or $x659 (= y_month 6) (= y_month 9) (= y_month 11))))
 (ite $x701 $x435 true)))))
(assert
 (let (($x794 (= x_day 31)))
 (let (($x793 (= x_month 1)))
 (let (($x533 (= x_year 2023)))
 (and $x533 $x793 $x794)))))
(assert
 (let ((?x735 (+ (mod (- (+ x_month (+ (* 0 12) 3)) 1) 12) 1)))
 (let ((?x528 (ite (or (= ?x735 4) (= ?x735 6) (= ?x735 9) (= ?x735 11)) 30 31)))
 (let ((?x580 (+ 0 (div (- (+ x_month (+ (* 0 12) 3)) 1) 12))))
 (let ((?x736 (+ x_year ?x580)))
 (let (($x221 (or (and (= (mod ?x736 4) 0) (and (distinct (mod ?x736 100) 0) true)) (= (mod ?x736 400) 0))))
 (let ((?x238 (ite (= ?x735 2) (ite $x221 29 28) ?x528)))
 (let ((?x585 (ite (< x_day 1) 1 (ite (> x_day ?x238) ?x238 x_day))))
 (let ((?x223 (ite (< ?x585 1) 1 (ite (> ?x585 ?x238) ?x238 ?x585))))
 (let ((?x731 (ite (= 2 ?x735) (ite $x221 31 31) (ite (= 1 ?x735) (ite $x221 0 0) 0))))
 (let ((?x760 (ite (= 4 ?x735) (ite $x221 91 90) (ite (= 3 ?x735) (ite $x221 60 59) ?x731))))
 (let ((?x193 (ite (= 6 ?x735) (ite $x221 152 151) (ite (= 5 ?x735) (ite $x221 121 120) ?x760))))
 (let ((?x727 (ite (= 8 ?x735) (ite $x221 213 212) (ite (= 7 ?x735) (ite $x221 182 181) ?x193))))
 (let ((?x169 (ite (= 10 ?x735) (ite $x221 274 273) (ite (= 9 ?x735) (ite $x221 244 243) ?x727))))
 (let ((?x788 (ite (= 12 ?x735) (ite $x221 335 334) (ite (= 11 ?x735) (ite $x221 305 304) ?x169))))
 (let ((?x326 (- (+ (* 365 (- ?x736 1)) (div (- ?x736 1) 4)) (div (- ?x736 1) 100))))
 (let ((?x776 (- (+ (+ (+ ?x326 (div (- ?x736 1) 400)) ?x788) (- ?x223 1)) 730179)))
 (let ((?x766 (+ (+ ?x776 0) 730179)))
 (let ((?x772 (mod ?x766 146097)))
 (let ((?x778 (div ?x772 36524)))
 (let ((?x792 (ite (<= 4 ?x778) 3 ?x778)))
 (let ((?x689 (- ?x772 (* ?x792 36524))))
 (let ((?x136 (mod ?x689 1461)))
 (let ((?x620 (div ?x136 365)))
 (let ((?x654 (ite (<= 4 ?x620) 3 ?x620)))
 (let ((?x453 (+ (+ (* (div ?x766 146097) 400) (* ?x792 100)) (* (div ?x689 1461) 4))))
 (let ((?x315 (+ (+ ?x453 ?x654) 1)))
 (let (($x457 (or (and (= (mod ?x315 4) 0) (and (distinct (mod ?x315 100) 0) true)) (= (mod ?x315 400) 0))))
 (let ((?x676 (- ?x136 (* ?x654 365))))
 (let ((?x450 (ite $x457 31 31)))
 (let (($x415 (>= ?x676 ?x450)))
 (let ((?x232 (ite $x415 (+ (- ?x676 ?x450) 1) (+ (- ?x676 (ite $x457 0 0)) 1))))
 (let ((?x222 (ite $x457 60 59)))
 (let (($x426 (>= ?x676 ?x222)))
 (let ((?x452 (ite $x457 91 90)))
 (let (($x408 (>= ?x676 ?x452)))
 (let ((?x481 (ite $x408 (+ (- ?x676 ?x452) 1) (ite $x426 (+ (- ?x676 ?x222) 1) ?x232))))
 (let ((?x454 (ite $x457 121 120)))
 (let (($x428 (>= ?x676 ?x454)))
 (let ((?x456 (ite $x457 152 151)))
 (let (($x495 (>= ?x676 ?x456)))
 (let ((?x498 (ite $x495 (+ (- ?x676 ?x456) 1) (ite $x428 (+ (- ?x676 ?x454) 1) ?x481))))
 (let ((?x504 (ite $x457 182 181)))
 (let (($x192 (>= ?x676 ?x504)))
 (let ((?x531 (ite $x457 213 212)))
 (let (($x472 (>= ?x676 ?x531)))
 (let ((?x406 (ite $x472 (+ (- ?x676 ?x531) 1) (ite $x192 (+ (- ?x676 ?x504) 1) ?x498))))
 (let ((?x491 (ite $x457 244 243)))
 (let (($x480 (>= ?x676 ?x491)))
 (let ((?x475 (ite $x457 274 273)))
 (let (($x162 (>= ?x676 ?x475)))
 (let ((?x365 (ite $x162 (+ (- ?x676 ?x475) 1) (ite $x480 (+ (- ?x676 ?x491) 1) ?x406))))
 (let ((?x479 (ite $x457 305 304)))
 (let (($x351 (>= ?x676 ?x479)))
 (let ((?x482 (ite $x457 335 334)))
 (let (($x394 (>= ?x676 ?x482)))
 (let ((?x494 (ite $x394 (+ (- ?x676 ?x482) 1) (ite $x351 (+ (- ?x676 ?x479) 1) ?x365))))
 (let (($x20 (= 0 0)))
 (let ((?x237 (ite $x428 5 (ite $x408 4 (ite $x426 3 (ite $x415 2 1))))))
 (let ((?x478 (ite $x480 9 (ite $x472 8 (ite $x192 7 (ite $x495 6 ?x237))))))
 (let (($x604 (= y_month (ite $x20 ?x735 (ite $x394 12 (ite $x351 11 (ite $x162 10 ?x478)))))))
 (and (= y_year (ite $x20 ?x736 ?x315)) $x604 (= y_day (ite $x20 ?x223 ?x494))))))))))))))))))))))))))))))))))))))))))))))))))))))))))))))))
(assert
 (let (($x284 (= y_day 30)))
(let (($x659 (= y_month 4)))
(let (($x285 (= y_year 2023)))
(and $x285 $x659 $x284)))))
(check-sat)
